c n orig vars 112
p cnf 114 318
1 2 -113 0
3 4 -113 0
5 6 -113 0
7 8 -113 0
9 10 -113 0
11 12 -113 0
13 14 -113 0
15 16 -113 0
17 18 -113 0
19 20 -113 0
21 22 -113 0
23 24 -113 0
25 26 -113 0
27 28 -113 0
29 30 -113 0
31 32 -113 0
33 34 -113 0
35 36 -113 0
37 38 -113 0
39 40 -113 0
41 50 59 68 77 86 95 104 -114 0
42 51 60 69 78 87 96 105 -114 0
43 52 61 70 79 88 97 106 -114 0
44 53 62 71 80 89 98 107 -114 0
45 54 63 72 81 90 99 108 -114 0
46 55 64 73 82 91 100 109 -114 0
47 56 65 74 83 92 101 110 -114 0
48 57 66 75 84 93 102 111 -114 0
49 58 67 76 85 94 103 112 -114 0
-41 -42 -114 0
-41 -43 -114 0
-41 -44 -114 0
-41 -45 -114 0
-41 -46 -114 0
-41 -47 -114 0
-41 -48 -114 0
-41 -49 -114 0
-42 -43 -114 0
-42 -44 -114 0
-42 -45 -114 0
-42 -46 -114 0
-42 -47 -114 0
-42 -48 -114 0
-42 -49 -114 0
-43 -44 -114 0
-43 -45 -114 0
-43 -46 -114 0
-43 -47 -114 0
-43 -48 -114 0
-43 -49 -114 0
-44 -45 -114 0
-44 -46 -114 0
-44 -47 -114 0
-44 -48 -114 0
-44 -49 -114 0
-45 -46 -114 0
-45 -47 -114 0
-45 -48 -114 0
-45 -49 -114 0
-46 -47 -114 0
-46 -48 -114 0
-46 -49 -114 0
-47 -48 -114 0
-47 -49 -114 0
-48 -49 -114 0
-50 -51 -114 0
-50 -52 -114 0
-50 -53 -114 0
-50 -54 -114 0
-50 -55 -114 0
-50 -56 -114 0
-50 -57 -114 0
-50 -58 -114 0
-51 -52 -114 0
-51 -53 -114 0
-51 -54 -114 0
-51 -55 -114 0
-51 -56 -114 0
-51 -57 -114 0
-51 -58 -114 0
-52 -53 -114 0
-52 -54 -114 0
-52 -55 -114 0
-52 -56 -114 0
-52 -57 -114 0
-52 -58 -114 0
-53 -54 -114 0
-53 -55 -114 0
-53 -56 -114 0
-53 -57 -114 0
-53 -58 -114 0
-54 -55 -114 0
-54 -56 -114 0
-54 -57 -114 0
-54 -58 -114 0
-55 -56 -114 0
-55 -57 -114 0
-55 -58 -114 0
-56 -57 -114 0
-56 -58 -114 0
-57 -58 -114 0
-59 -60 -114 0
-59 -61 -114 0
-59 -62 -114 0
-59 -63 -114 0
-59 -64 -114 0
-59 -65 -114 0
-59 -66 -114 0
-59 -67 -114 0
-60 -61 -114 0
-60 -62 -114 0
-60 -63 -114 0
-60 -64 -114 0
-60 -65 -114 0
-60 -66 -114 0
-60 -67 -114 0
-61 -62 -114 0
-61 -63 -114 0
-61 -64 -114 0
-61 -65 -114 0
-61 -66 -114 0
-61 -67 -114 0
-62 -63 -114 0
-62 -64 -114 0
-62 -65 -114 0
-62 -66 -114 0
-62 -67 -114 0
-63 -64 -114 0
-63 -65 -114 0
-63 -66 -114 0
-63 -67 -114 0
-64 -65 -114 0
-64 -66 -114 0
-64 -67 -114 0
-65 -66 -114 0
-65 -67 -114 0
-66 -67 -114 0
-68 -69 -114 0
-68 -70 -114 0
-68 -71 -114 0
-68 -72 -114 0
-68 -73 -114 0
-68 -74 -114 0
-68 -75 -114 0
-68 -76 -114 0
-69 -70 -114 0
-69 -71 -114 0
-69 -72 -114 0
-69 -73 -114 0
-69 -74 -114 0
-69 -75 -114 0
-69 -76 -114 0
-70 -71 -114 0
-70 -72 -114 0
-70 -73 -114 0
-70 -74 -114 0
-70 -75 -114 0
-70 -76 -114 0
-71 -72 -114 0
-71 -73 -114 0
-71 -74 -114 0
-71 -75 -114 0
-71 -76 -114 0
-72 -73 -114 0
-72 -74 -114 0
-72 -75 -114 0
-72 -76 -114 0
-73 -74 -114 0
-73 -75 -114 0
-73 -76 -114 0
-74 -75 -114 0
-74 -76 -114 0
-75 -76 -114 0
-77 -78 -114 0
-77 -79 -114 0
-77 -80 -114 0
-77 -81 -114 0
-77 -82 -114 0
-77 -83 -114 0
-77 -84 -114 0
-77 -85 -114 0
-78 -79 -114 0
-78 -80 -114 0
-78 -81 -114 0
-78 -82 -114 0
-78 -83 -114 0
-78 -84 -114 0
-78 -85 -114 0
-79 -80 -114 0
-79 -81 -114 0
-79 -82 -114 0
-79 -83 -114 0
-79 -84 -114 0
-79 -85 -114 0
-80 -81 -114 0
-80 -82 -114 0
-80 -83 -114 0
-80 -84 -114 0
-80 -85 -114 0
-81 -82 -114 0
-81 -83 -114 0
-81 -84 -114 0
-81 -85 -114 0
-82 -83 -114 0
-82 -84 -114 0
-82 -85 -114 0
-83 -84 -114 0
-83 -85 -114 0
-84 -85 -114 0
-86 -87 -114 0
-86 -88 -114 0
-86 -89 -114 0
-86 -90 -114 0
-86 -91 -114 0
-86 -92 -114 0
-86 -93 -114 0
-86 -94 -114 0
-87 -88 -114 0
-87 -89 -114 0
-87 -90 -114 0
-87 -91 -114 0
-87 -92 -114 0
-87 -93 -114 0
-87 -94 -114 0
-88 -89 -114 0
-88 -90 -114 0
-88 -91 -114 0
-88 -92 -114 0
-88 -93 -114 0
-88 -94 -114 0
-89 -90 -114 0
-89 -91 -114 0
-89 -92 -114 0
-89 -93 -114 0
-89 -94 -114 0
-90 -91 -114 0
-90 -92 -114 0
-90 -93 -114 0
-90 -94 -114 0
-91 -92 -114 0
-91 -93 -114 0
-91 -94 -114 0
-92 -93 -114 0
-92 -94 -114 0
-93 -94 -114 0
-95 -96 -114 0
-95 -97 -114 0
-95 -98 -114 0
-95 -99 -114 0
-95 -100 -114 0
-95 -101 -114 0
-95 -102 -114 0
-95 -103 -114 0
-96 -97 -114 0
-96 -98 -114 0
-96 -99 -114 0
-96 -100 -114 0
-96 -101 -114 0
-96 -102 -114 0
-96 -103 -114 0
-97 -98 -114 0
-97 -99 -114 0
-97 -100 -114 0
-97 -101 -114 0
-97 -102 -114 0
-97 -103 -114 0
-98 -99 -114 0
-98 -100 -114 0
-98 -101 -114 0
-98 -102 -114 0
-98 -103 -114 0
-99 -100 -114 0
-99 -101 -114 0
-99 -102 -114 0
-99 -103 -114 0
-100 -101 -114 0
-100 -102 -114 0
-100 -103 -114 0
-101 -102 -114 0
-101 -103 -114 0
-102 -103 -114 0
-104 -105 -114 0
-104 -106 -114 0
-104 -107 -114 0
-104 -108 -114 0
-104 -109 -114 0
-104 -110 -114 0
-104 -111 -114 0
-104 -112 -114 0
-105 -106 -114 0
-105 -107 -114 0
-105 -108 -114 0
-105 -109 -114 0
-105 -110 -114 0
-105 -111 -114 0
-105 -112 -114 0
-106 -107 -114 0
-106 -108 -114 0
-106 -109 -114 0
-106 -110 -114 0
-106 -111 -114 0
-106 -112 -114 0
-107 -108 -114 0
-107 -109 -114 0
-107 -110 -114 0
-107 -111 -114 0
-107 -112 -114 0
-108 -109 -114 0
-108 -110 -114 0
-108 -111 -114 0
-108 -112 -114 0
-109 -110 -114 0
-109 -111 -114 0
-109 -112 -114 0
-110 -111 -114 0
-110 -112 -114 0
-111 -112 -114 0
113 114 0
